NAME: random-35-26581
TYPE: TSP
COMMENT: size=35 seed=26581
DIMENSION: 72
EDGE_WEIGHT_TYPE: EUC_2D
NODE_COORD_SECTION
+0 867 757
-0 867 757
+1 163 492
-1 314 650
+2 31 214
-2 769 383
+3 563 456
-3 60 130
+4 154 561
-4 463 500
+5 284 204
-5 144 260
+6 683 191
-6 251 11
+7 217 849
-7 898 333
+8 0 260
-8 55 345
+9 847 987
-9 125 984
+10 625 733
-10 110 688
+11 39 841
-11 985 19
+12 258 217
-12 603 287
+13 308 835
-13 905 715
+14 40 456
-14 881 620
+15 720 676
-15 188 384
+16 806 483
-16 759 131
+17 244 953
-17 215 91
+18 780 923
-18 158 719
+19 839 259
-19 998 305
+20 227 810
-20 62 628
+21 911 44
-21 862 270
+22 829 645
-22 122 589
+23 895 421
-23 248 757
+24 405 701
-24 252 137
+25 627 418
-25 853 288
+26 955 833
-26 621 591
+27 532 474
-27 911 381
+28 418 303
-28 912 984
+29 340 34
-29 349 870
+30 614 811
-30 1 884
+31 537 459
-31 943 11
+32 710 242
-32 983 261
+33 230 842
-33 642 19
+34 694 785
-34 475 509
+35 595 246
-35 824 231
PRECEDENCE_SECTION
+0 -0
+1 -1
+2 -2
+3 -3
+4 -4
+5 -5
+6 -6
+7 -7
+8 -8
+9 -9
+10 -10
+11 -11
+12 -12
+13 -13
+14 -14
+15 -15
+16 -16
+17 -17
+18 -18
+19 -19
+20 -20
+21 -21
+22 -22
+23 -23
+24 -24
+25 -25
+26 -26
+27 -27
+28 -28
+29 -29
+30 -30
+31 -31
+32 -32
+33 -33
+34 -34
+35 -35
EOF
